p cnf 918 1190
c ind 649 650 651 664 671 697 758 759 772 779 0
c ind 783 785 788 804 806 809 821 822 841 843 0
c ind 847 858 859 863 864 865 869 871 903 885 0
c ind 894 908 889 899 916 642 757 902 672 884 0
c ind 893 907 888 898 684 915 643 644 756 647 0
c ind 648 755 853 854 852 851 850 872 901 883 0
c ind 892 906 887 897 914 862 900 882 891 905 0
c ind 886 896 913 860 861 877 881 911 849 848 0
c ind 870 857 846 868 866 867 855 856 845 844 0
c ind 837 879 909 878 880 910 890 904 895 912 0
c ind 645 646 874 842 840 838 839 836 829 828 0
c ind 835 875 834 833 832 831 830 827 826 876 0
c ind 825 824 823 641 816 815 813 814 812 811 0
c ind 873 817 818 810 808 819 807 820 805 803 0
c ind 801 802 800 799 798 797 796 795 794 792 0
c ind 793 791 790 789 787 786 784 782 780 781 0
c ind 762 778 773 777 774 775 769 776 771 767 0
c ind 768 770 766 761 765 763 764 760 754 747 0
c ind 739 753 752 751 750 733 732 731 749 730 0
c ind 748 729 728 727 746 745 744 743 742 654 0
c ind 741 740 738 737 736 735 734 726 719 711 0
c ind 725 724 723 722 705 704 703 721 702 720 0
c ind 701 700 699 718 717 716 715 714 713 712 0
c ind 710 709 708 707 706 698 696 694 695 685 0
c ind 686 693 692 691 690 689 687 688 681 680 0
c ind 682 683 679 678 677 676 674 675 673 670 0
c ind 669 665 666 667 668 661 663 660 659 662 0
c ind 653 658 652 657 655 656 1 0
c ret 583 584 585 586 587 588 589 590 591 592 0
c ret 593 594 595 596 597 598 599 600 601 602 0
c ret 603 604 605 606 607 608 609 278 284 610 0
c ret 285 611 286 612 287 613 288 289 290 291 0
c ret 292 614 293 294 295 296 297 298 299 615 0
c ret 300 616 301 302 617 303 304 618 305 306 0
c ret 619 307 308 309 620 310 311 621 312 313 0
c ret 314 622 623 315 316 317 318 319 320 279 0
c ret 321 322 323 324 624 325 625 326 327 626 0
c ret 627 328 329 330 628 331 332 333 334 335 0
c ret 629 336 337 630 338 339 631 340 632 341 0
c ret 342 343 344 345 346 633 634 347 348 349 0
c ret 350 635 351 352 353 354 355 356 357 358 0
c ret 636 359 360 361 280 362 637 363 638 364 0
c ret 365 639 366 640 367 368 369 370 371 372 0
c ret 373 374 375 376 377 378 379 380 381 382 0
c ret 383 384 385 386 387 388 389 390 391 392 0
c ret 393 394 395 396 397 398 399 400 401 281 0
c ret 402 403 404 405 406 407 408 409 410 411 0
c ret 412 413 414 415 416 417 418 419 420 421 0
c ret 422 423 424 425 426 427 428 429 430 431 0
c ret 432 433 434 435 436 437 438 439 440 441 0
c ret 442 443 444 445 446 447 448 449 450 451 0
c ret 452 453 454 455 456 457 458 459 460 461 0
c ret 462 463 464 465 466 467 468 469 470 471 0
c ret 472 282 473 474 475 476 477 478 479 480 0
c ret 481 482 483 484 485 486 487 488 489 490 0
c ret 491 492 493 494 495 496 497 498 499 500 0
c ret 501 502 503 504 505 506 507 508 509 510 0
c ret 511 283 512 513 514 515 516 517 518 519 0
c ret 520 521 522 523 524 525 526 527 528 529 0
c ret 530 531 532 533 534 535 536 537 538 539 0
c ret 540 541 542 543 544 545 546 547 548 549 0
c ret 550 551 552 553 554 555 556 557 558 559 0
c ret 560 561 562 563 564 565 566 567 568 569 0
c ret 570 571 572 573 574 575 576 577 578 579 0
c ret 580 581 582 0
2 4 5 -274 0
2 3 5 -274 0
-2 274 0
-2 -5 0
-2 -3 -4 0
3 510 0
3 -511 517 0
3 511 518 0
-3 -510 511 -518 0
-3 -510 -511 -517 0
4 510 0
4 -511 -517 0
4 511 -518 0
-4 -510 511 518 0
-4 -510 -511 517 0
5 6 -54 -98 -211 0
5 -6 54 -98 -211 0
-5 211 0
-5 6 54 0
-5 98 0
-5 -6 -54 0
6 -7 -9 0
6 -7 48 0
-6 7 0
-6 9 -48 0
4 7 -8 0
3 7 -8 0
-7 8 0
-3 -4 -7 0
8 -539 -568 0
-8 539 0
-8 568 0
9 -10 -47 -640 0
9 10 -11 -47 0
-9 47 0
-9 -10 640 0
-9 10 11 0
10 505 -507 0
-10 -505 0
-10 507 0
11 -12 -639 0
11 12 -13 0
-11 -12 639 0
-11 12 13 0
12 477 -479 0
-12 -477 0
-12 479 0
13 14 39 46 0
13 14 39 -42 0
-13 -14 0
-13 -39 0
-13 42 -46 0
14 -37 278 -453 0
14 15 278 453 0
-14 -278 0
-14 37 -453 0
-14 -15 453 0
15 -16 -636 0
-15 636 0
-15 16 0
16 17 -21 0
-16 -17 0
-16 21 0
17 -18 -310 0
17 -20 -310 0
17 -19 -310 0
-17 310 0
-17 18 19 20 0
18 -311 312 313 0
-18 311 0
-18 -313 0
-18 -312 0
19 316 319 320 0
-19 -316 0
-19 -320 0
-19 -319 0
20 -316 317 318 0
-20 316 0
-20 -318 0
-20 -317 0
21 22 -29 0
21 22 32 -343 0
-21 -22 0
-21 29 -32 0
-21 29 343 0
22 -23 26 0
22 26 364 0
-22 -26 0
-22 23 -364 0
23 -25 367 370 0
23 -24 -25 367 0
-23 -367 0
-23 25 0
-23 24 -370 0
24 368 -369 0
-24 -368 0
-24 369 0
25 365 366 0
-25 -365 0
-25 -366 0
24 -25 26 27 -28 0
25 -26 0
-26 -27 0
-24 -26 0
-26 28 0
27 376 377 0
27 376 384 385 0
-27 -376 0
-27 -377 -384 0
-27 -377 -385 0
28 -364 367 370 -371 0
-28 371 0
-28 -370 0
-28 364 0
-28 -367 0
29 30 -336 0
29 31 -336 -342 0
-29 336 0
-29 -30 342 0
-29 -30 -31 0
30 337 338 339 0
-30 -337 0
-30 -339 0
-30 -338 0
31 340 -341 0
-31 -340 0
-31 341 0
32 33 35 0
-32 -33 0
-32 -35 0
33 -34 342 -348 0
-33 34 0
-33 348 0
-33 -342 0
-30 31 34 -336 -343 0
30 -34 0
-31 -34 0
-34 336 0
-34 343 0
-34 35 -36 -356 0
-34 35 -36 -357 0
-35 36 0
34 -35 0
-35 356 357 0
36 342 348 -349 0
-36 349 0
-36 -348 0
-36 -342 0
37 -38 637 0
15 37 38 0
-37 -38 -637 0
-15 -37 38 0
38 419 -421 0
-38 -419 0
-38 421 0
39 -40 -41 -463 0
39 -40 -41 -464 0
-39 41 0
-39 40 0
-39 463 464 0
40 466 467 468 469 0
-40 -469 0
-40 -468 0
-40 -466 0
-40 -467 0
41 -460 -461 -462 465 0
-41 462 0
-41 -465 0
-41 460 0
-41 461 0
37 42 -43 0
-37 -42 0
-42 43 0
43 44 45 0
-43 -44 0
-43 -45 0
44 432 433 434 0
-44 -432 0
-44 -434 0
-44 -433 0
45 440 -442 0
-45 -440 0
-45 442 0
45 46 -278 0
46 -278 638 0
-46 278 0
-45 -46 -638 0
47 -474 481 0
-47 474 0
-47 -481 0
48 -49 -474 0
11 13 48 0
11 48 -474 0
13 48 -49 0
-13 -48 474 0
-11 -48 49 0
49 51 481 0
49 -50 51 0
49 51 474 0
-49 -51 0
-49 50 -474 -481 0
50 -482 483 0
-50 482 0
-50 -483 0
51 52 -53 0
-51 -52 0
-51 53 0
52 485 -486 -487 488 0
-52 -485 0
-52 -488 0
-52 487 0
-52 486 0
53 -474 -481 -482 483 0
-53 482 0
-53 -483 0
-53 474 0
-53 481 0
54 87 92 -837 0
54 55 87 92 0
-54 -92 0
-54 -87 0
-54 -55 837 0
55 56 79 86 0
55 56 79 -82 0
-55 -56 0
-55 -79 0
-55 82 -86 0
56 -77 641 -816 0
56 57 641 816 0
-56 -641 0
-56 77 -816 0
-56 -57 816 0
57 -58 -912 0
-57 912 0
-57 58 0
58 -59 73 0
-58 59 0
-58 -73 0
59 -66 67 0
59 60 67 -706 0
-59 -67 0
-59 -60 66 0
-59 66 706 0
60 61 0
60 64 -705 0
60 64 711 0
-60 -61 -64 0
-60 -61 705 -711 0
61 -62 63 -699 -706 0
-61 62 0
-61 -63 0
-61 699 0
-61 706 0
62 700 701 702 0
-62 -700 0
-62 -702 0
-62 -701 0
63 703 -704 0
-63 -703 0
-63 704 0
64 65 705 711 -712 0
-64 -705 0
-64 -65 0
-64 712 0
-64 -711 0
65 719 720 0
-65 -719 0
-65 -720 0
62 66 -699 0
63 66 -699 -705 0
-66 699 0
-62 -66 705 0
-62 -63 -66 0
67 69 72 0
67 69 -71 0
67 68 69 0
-67 -69 0
-67 -68 71 -72 0
68 728 729 730 0
-68 -728 0
-68 -730 0
-68 -729 0
68 69 -727 0
69 70 -727 -733 0
-69 727 0
-68 -69 733 0
-68 -69 -70 0
70 731 -732 0
-70 -731 0
-70 732 0
71 739 740 0
71 739 747 748 0
-71 -739 0
-71 -740 -747 0
-71 -740 -748 0
70 72 -727 733 -734 0
-72 734 0
-70 -72 0
-72 727 0
-72 -733 0
73 -74 -673 0
73 -76 -673 0
73 -75 -673 0
-73 673 0
-73 74 75 76 0
74 -674 675 676 0
-74 674 0
-74 -676 0
-74 -675 0
75 679 682 683 0
-75 -679 0
-75 -683 0
-75 -682 0
76 -679 680 681 0
-76 679 0
-76 -681 0
-76 -680 0
77 -78 913 0
57 77 78 0
-77 -78 -913 0
-57 -77 78 0
78 782 -784 0
-78 -782 0
-78 784 0
79 -80 -81 -826 0
79 -80 -81 -827 0
-79 81 0
-79 80 0
-79 826 827 0
80 829 830 831 832 0
-80 -832 0
-80 -831 0
-80 -829 0
-80 -830 0
81 -823 -824 -825 828 0
-81 825 0
-81 -828 0
-81 823 0
-81 824 0
77 82 -83 0
-77 -82 0
-82 83 0
83 84 85 0
-83 -84 0
-83 -85 0
84 803 -805 0
-84 -803 0
-84 805 0
85 795 796 797 0
-85 -795 0
-85 -797 0
-85 -796 0
84 86 -641 0
86 -641 914 0
-86 641 0
-84 -86 -914 0
87 -88 -91 -916 0
87 88 -89 -91 0
-87 91 0
-87 -88 916 0
-87 88 89 0
88 868 -870 0
-88 -868 0
-88 870 0
89 -90 -915 0
-55 89 90 0
-89 -90 915 0
55 -89 90 0
90 840 -842 0
-90 -840 0
-90 842 0
91 -837 844 0
-91 837 0
-91 -844 0
-89 92 93 0
89 -92 0
-92 -93 0
93 95 844 0
93 -94 95 0
93 95 837 0
-93 -95 0
-93 94 -837 -844 0
94 -845 846 0
-94 845 0
-94 -846 0
95 96 -97 0
-95 -96 0
-95 97 0
96 848 -849 -850 851 0
-96 -848 0
-96 -851 0
-96 850 0
-96 849 0
97 -837 -844 -845 846 0
-97 845 0
-97 -846 0
-97 837 0
-97 844 0
98 -99 -138 -162 0
98 -99 -150 -162 0
-98 162 0
-98 99 0
-98 138 150 0
99 100 -109 -128 0
99 -100 109 -118 0
99 100 -109 -118 0
99 -100 109 -128 0
-99 -100 -109 0
-99 100 109 0
-99 118 128 0
-7 100 -101 0
-7 100 108 0
7 -100 0
-100 101 -108 0
10 -47 101 -102 0
-10 -47 101 -613 0
47 -101 0
10 -101 102 0
-10 -101 613 0
-12 102 -612 0
12 102 -103 0
-12 -102 612 0
12 -102 103 0
39 103 104 107 0
39 103 104 -106 0
-39 -103 0
-103 -104 0
-103 106 -107 0
104 -105 278 -453 0
16 104 278 453 0
-104 -278 0
-104 105 -453 0
-16 -104 453 0
-38 105 610 0
16 38 105 0
-38 -105 -610 0
-16 38 -105 0
-43 105 106 0
43 -106 0
-105 -106 0
45 107 -278 0
107 -278 611 0
-107 278 0
-45 -107 -611 0
-49 103 108 0
102 108 -474 0
-49 108 -474 0
102 103 108 0
49 -102 -108 0
-103 -108 474 0
109 115 117 -837 0
109 110 115 117 0
-109 -117 0
-109 -115 0
-109 -110 837 0
79 110 111 114 0
79 110 111 -113 0
-79 -110 0
-110 -111 0
-110 113 -114 0
111 -112 641 -816 0
58 111 641 816 0
-111 -641 0
-111 112 -816 0
-58 -111 816 0
-78 112 886 0
58 78 112 0
-78 -112 -886 0
-58 78 -112 0
-83 112 113 0
83 -113 0
-112 -113 0
84 114 -641 0
114 -641 887 0
-114 641 0
-84 -114 -887 0
88 -91 115 -116 0
-88 -91 115 -889 0
91 -115 0
88 -115 116 0
-88 -115 889 0
-90 116 -888 0
90 -110 116 0
-90 -116 888 0
90 110 -116 0
93 -116 117 0
-93 -117 0
116 -117 0
-7 118 -119 0
-7 118 127 0
7 -118 0
-118 119 -127 0
10 -47 119 -120 0
-10 -47 119 -609 0
47 -119 0
10 -119 120 0
-10 -119 609 0
-12 120 -608 0
12 120 -121 0
-12 -120 608 0
12 -120 121 0
39 121 122 126 0
39 121 122 -125 0
-39 -121 0
-121 -122 0
-121 125 -126 0
122 123 -278 607 0
45 122 123 -278 0
-122 278 0
-122 -123 0
-45 -122 -607 0
-43 123 124 0
43 -123 0
-123 -124 0
16 38 124 0
-38 124 606 0
38 124 283 0
-38 -124 -606 0
-16 38 -124 -283 0
-16 38 125 -283 0
-16 125 -283 453 0
16 -125 0
-125 283 0
-38 -125 -453 0
126 278 606 0
126 278 453 0
38 126 278 0
-126 -278 0
-38 -126 -453 -606 0
-49 121 127 0
120 127 -474 0
-49 127 -474 0
120 121 127 0
49 -120 -127 0
-121 -127 474 0
128 135 137 -837 0
128 129 135 137 0
-128 -137 0
-128 -135 0
-128 -129 837 0
79 129 130 134 0
79 129 130 -133 0
-79 -129 0
-129 -130 0
-129 133 -134 0
130 131 -641 883 0
84 130 131 -641 0
-130 641 0
-130 -131 0
-84 -130 -883 0
-83 131 132 0
83 -131 0
-131 -132 0
58 78 132 0
-78 132 882 0
78 132 646 0
-78 -132 -882 0
-58 78 -132 -646 0
-58 78 133 -646 0
-58 133 -646 816 0
58 -133 0
-133 646 0
-78 -133 -816 0
134 641 882 0
134 641 816 0
78 134 641 0
-134 -641 0
-78 -134 -816 -882 0
88 -91 135 -136 0
-88 -91 135 -885 0
91 -135 0
88 -135 136 0
-88 -135 885 0
-90 136 -884 0
90 -129 136 0
-90 -136 884 0
90 129 -136 0
93 -136 137 0
-93 -137 0
136 -137 0
138 139 149 837 0
138 -145 149 -837 0
-138 -149 0
-138 -139 837 0
-138 145 -837 0
79 139 140 144 0
79 139 140 -143 0
-79 -139 0
-139 -140 0
-139 143 -144 0
140 -142 641 -816 0
140 141 641 816 0
-140 -641 0
-140 142 -816 0
-140 -141 816 0
-58 141 -645 0
-141 645 0
58 -141 0
-78 142 900 0
78 141 142 0
-78 -142 -900 0
78 -141 -142 0
-83 142 143 0
83 -143 0
-142 -143 0
84 144 -641 0
144 -641 901 0
-144 641 0
-84 -144 -901 0
145 146 147 0
145 148 903 0
145 146 148 0
145 147 903 0
-145 -146 -903 0
-145 -147 -148 0
-88 146 844 0
-146 -844 0
88 -146 0
147 -844 -846 0
88 147 844 0
147 -844 845 0
-88 -147 844 0
-147 -844 -845 846 0
-90 148 -902 0
90 -139 148 0
-90 -148 902 0
90 139 -148 0
-95 -148 149 0
95 -149 0
148 -149 0
-7 150 151 161 0
-7 150 151 159 0
7 -150 0
-150 -151 0
-150 -159 -161 0
151 153 474 0
12 151 152 153 0
-151 -153 0
-151 -152 -474 0
-12 -151 -474 0
-10 152 481 -627 0
10 -152 0
-152 627 0
-152 -481 0
39 153 154 158 0
39 153 154 -157 0
-39 -153 0
-153 -154 0
-153 157 -158 0
154 -156 278 -453 0
154 155 278 453 0
-154 -278 0
-154 156 -453 0
-154 -155 453 0
-16 155 -282 0
-155 282 0
16 -155 0
-38 156 624 0
38 155 156 0
-38 -156 -624 0
38 -155 -156 0
-43 156 157 0
43 -157 0
-156 -157 0
45 158 -278 0
158 -278 625 0
-158 278 0
-45 -158 -625 0
-12 159 -474 0
159 -160 -474 0
-159 474 0
12 -159 160 0
-10 51 160 481 0
-50 51 160 -481 0
-51 -160 0
50 -160 -481 0
10 -160 481 0
152 -160 161 0
152 161 626 0
-152 -161 0
160 -161 -626 0
162 163 -164 180 -189 0
162 163 164 -180 -189 0
-162 189 0
-162 -164 -180 0
-162 -163 0
-162 164 180 0
-118 -128 163 0
118 -163 0
128 -163 0
164 -169 278 0
44 164 165 -169 0
-164 169 0
-164 -165 -278 0
-44 -164 -278 0
165 166 -397 0
-21 165 -168 397 0
-165 -166 -397 0
21 -165 397 0
-165 168 397 0
-21 166 -167 0
21 -166 0
-166 167 0
167 -597 -599 0
17 167 597 0
167 -597 -603 0
-17 -167 597 0
-167 -597 599 603 0
168 -597 599 605 0
-168 597 0
-168 -605 0
-168 -599 0
165 169 171 -175 0
169 -170 171 -175 0
-169 175 0
-169 -171 0
-165 -169 170 0
170 453 454 0
-170 -453 0
-170 -454 0
-165 171 172 0
166 171 -173 0
-165 166 171 0
171 172 -173 0
165 -171 173 0
-166 -171 -172 0
172 455 456 457 0
-172 -455 0
-172 -457 0
-172 -456 0
173 -174 278 0
-173 -278 0
-173 174 0
-172 174 453 454 0
172 -174 0
-174 -454 0
-174 -453 0
-8 175 176 -179 0
8 -175 0
-175 -176 0
-175 179 0
-3 176 178 510 0
-3 176 -177 178 0
3 -176 0
-176 -178 0
-176 177 -510 0
-4 177 0
177 -519 525 0
177 519 526 0
4 -177 -519 -525 0
4 -177 519 -526 0
4 178 -519 525 0
4 178 519 526 0
-4 -178 0
-178 519 -526 0
-178 -519 -525 0
39 53 179 0
39 52 179 0
-39 -179 0
-52 -53 -179 0
180 181 -183 0
180 187 188 0
180 -183 187 0
-180 183 -188 0
-180 -181 -187 0
-180 183 -187 0
181 -182 816 817 820 0
-181 182 0
-181 -820 0
-181 -816 0
-181 -817 0
182 818 819 0
-182 -818 0
-182 -819 0
183 184 -760 0
183 -186 760 881 0
-183 -184 -760 0
-183 186 760 0
-183 760 -881 0
-59 184 -185 0
59 -184 0
-184 185 0
185 -873 -875 0
73 185 873 0
185 -873 -879 0
-73 -185 873 0
-185 -873 875 879 0
-59 186 -873 875 0
-186 873 0
-186 -875 0
59 -186 0
181 187 641 0
-184 187 641 0
-187 -641 0
-181 184 -187 0
85 188 -641 0
-188 641 0
-85 -188 0
186 189 190 204 -207 0
-186 189 190 -204 -207 0
-189 207 0
186 -189 -204 0
-189 -190 0
-186 -189 204 0
190 191 -198 0
190 -191 198 0
-190 -191 -198 0
-190 191 198 0
191 192 -196 -197 0
191 192 -196 641 0
-191 196 0
-191 -192 0
-191 197 -641 0
181 192 195 0
192 193 195 0
-181 192 193 641 0
-181 -192 -193 0
181 -192 -195 0
-192 -195 -641 0
-59 193 -873 0
-59 73 193 194 0
59 -193 0
-193 -194 873 0
-73 -193 873 0
194 652 910 0
-194 -652 0
-194 -910 0
195 760 -911 0
-193 195 -760 0
193 -195 -760 0
-195 760 911 0
79 97 196 0
79 96 196 0
-79 -196 0
-96 -97 -196 0
85 -195 197 0
-85 -197 0
195 -197 0
198 -202 278 0
44 198 -199 -202 0
-198 202 0
-198 199 -278 0
-44 -198 -278 0
199 397 -635 0
199 -200 -397 0
-199 200 -397 0
-199 397 635 0
-21 200 -597 0
17 -21 200 201 0
21 -200 0
-200 -201 597 0
-17 -200 597 0
201 289 634 0
-201 -289 0
-201 -634 0
-175 202 203 0
175 -202 0
-202 -203 0
174 199 203 0
199 200 203 0
-174 200 203 278 0
-174 -200 -203 0
174 -199 -203 0
-199 -203 -278 0
-21 -175 204 -205 206 0
175 -204 0
-204 -206 0
21 -204 0
-204 205 0
205 -597 599 0
-205 597 0
-205 -599 0
-44 206 -278 0
-206 278 0
44 -206 0
73 -196 207 -208 -210 0
-73 -207 0
-207 210 0
-207 208 0
196 -207 0
85 208 -209 0
208 -209 641 0
-208 209 0
-85 -208 -641 0
209 -644 -645 0
209 -643 646 0
209 -643 -645 0
209 -644 646 0
-209 645 -646 0
-209 643 644 0
-66 67 210 0
60 67 210 0
-67 -210 0
-60 66 -210 0
211 -212 -255 256 -265 0
211 -212 -255 -256 265 0
-211 255 0
-211 256 265 0
-211 212 0
-211 -256 -265 0
212 223 -233 0
212 213 -233 0
-212 233 0
-212 -213 -223 0
-7 213 -214 0
-7 213 222 0
7 -213 0
-213 214 -222 0
10 -47 214 -215 0
-10 -47 214 -618 0
47 -214 0
10 -214 215 0
-10 -214 618 0
-12 215 -617 0
12 215 -216 0
-12 -215 617 0
12 -215 216 0
39 216 217 221 0
39 216 217 -220 0
-39 -216 0
-216 -217 0
-216 220 -221 0
217 -219 278 -453 0
217 218 278 453 0
-217 -278 0
-217 219 -453 0
-217 -218 453 0
-16 218 -614 0
-218 614 0
16 -218 0
-38 219 615 0
38 218 219 0
-38 -219 -615 0
38 -218 -219 0
-43 219 220 0
43 -220 0
-219 -220 0
45 221 -278 0
221 -278 616 0
-221 278 0
-45 -221 -616 0
-49 216 222 0
215 222 -474 0
-49 222 -474 0
215 216 222 0
49 -215 -222 0
-216 -222 474 0
223 230 232 -837 0
223 224 230 232 0
-223 -232 0
-223 -230 0
-223 -224 837 0
79 224 225 229 0
79 224 225 -228 0
-79 -224 0
-224 -225 0
-224 228 -229 0
225 -227 641 -816 0
225 226 641 816 0
-225 -641 0
-225 227 -816 0
-225 -226 816 0
-58 226 -890 0
-226 890 0
58 -226 0
-78 227 891 0
78 226 227 0
-78 -227 -891 0
78 -226 -227 0
-83 227 228 0
83 -228 0
-227 -228 0
84 229 -641 0
229 -641 892 0
-229 641 0
-84 -229 -892 0
88 -91 230 -231 0
-88 -91 230 -894 0
91 -230 0
88 -230 231 0
-88 -230 894 0
-90 231 -893 0
90 -224 231 0
-90 -231 893 0
90 224 -231 0
93 -231 232 0
-93 -232 0
231 -232 0
138 233 -245 0
150 233 -234 0
150 233 -245 0
138 233 -234 0
-138 -150 -233 0
-233 234 245 0
-7 234 -235 0
-7 234 -243 0
-7 234 -242 0
7 -234 0
-234 235 242 243 0
235 238 -239 0
-43 235 236 -239 0
-235 239 0
-235 -236 -238 0
43 -235 -238 0
-38 236 620 0
38 236 237 0
-38 -236 -620 0
38 -236 -237 0
-16 237 -619 0
-237 619 0
16 -237 0
45 238 -278 0
238 -278 621 0
-238 278 0
-45 -238 -621 0
239 240 -241 0
-239 -240 0
-239 241 0
-236 240 278 -453 0
237 240 278 453 0
-240 -278 0
236 -240 -453 0
-237 -240 453 0
39 159 241 0
-39 -241 0
-159 -241 0
-10 -47 242 -623 0
-242 623 0
10 -242 0
47 -242 0
-12 243 -244 -622 0
-243 622 0
12 -243 0
-243 244 0
160 244 -474 0
-244 474 0
-160 -244 0
245 -246 -253 0
245 -253 837 0
-245 253 0
-245 246 -837 0
146 147 246 0
246 247 899 0
146 246 247 0
147 246 899 0
-146 -246 -899 0
-147 -246 -247 0
-90 247 -898 0
79 90 247 -248 0
90 -247 248 0
-90 -247 898 0
-79 90 -247 0
248 251 252 0
-83 248 249 252 0
-248 -252 0
-248 -249 -251 0
83 -248 -251 0
-78 249 896 0
78 249 250 0
-78 -249 -896 0
78 -249 -250 0
-58 250 -895 0
-250 895 0
58 -250 0
84 251 -641 0
251 -641 897 0
-251 641 0
-84 -251 -897 0
-249 252 641 -816 0
250 252 641 816 0
-252 -641 0
249 -252 -816 0
-250 -252 816 0
247 248 253 0
95 253 254 0
247 253 254 0
95 248 253 0
-95 -247 -253 0
-248 -253 -254 0
79 254 837 0
-254 -837 0
-79 -254 0
-223 234 255 0
-213 245 255 0
-213 234 255 0
-223 245 255 0
213 223 -255 0
-234 -245 -255 0
-7 256 -257 0
-7 256 -264 0
-7 256 -263 0
7 -256 0
-256 257 263 264 0
257 260 -261 0
-43 257 258 -261 0
-257 261 0
-257 -258 -260 0
43 -257 -260 0
-38 258 629 0
38 258 259 0
-38 -258 -629 0
38 -258 -259 0
-16 259 -628 0
-259 628 0
16 -259 0
45 260 -278 0
260 -278 630 0
-260 278 0
-45 -260 -630 0
-241 261 262 0
241 -261 0
-261 -262 0
-258 262 278 -453 0
259 262 278 453 0
-262 -278 0
258 -262 -453 0
-259 -262 453 0
-10 -47 263 -632 0
-263 632 0
10 -263 0
47 -263 0
-12 -244 264 -631 0
-264 631 0
12 -264 0
244 -264 0
265 -266 -273 0
265 -273 837 0
-265 273 0
-265 266 -837 0
146 147 266 0
266 267 908 0
146 266 267 0
147 266 908 0
-146 -266 -908 0
-147 -266 -267 0
-90 267 -907 0
79 90 267 -268 0
90 -267 268 0
-90 -267 907 0
-79 90 -267 0
268 271 272 0
-83 268 269 271 0
-268 -271 0
83 -268 -272 0
-268 -269 -272 0
-78 269 905 0
78 269 270 0
-78 -269 -905 0
78 -269 -270 0
-58 270 -904 0
-270 904 0
58 -270 0
-269 271 641 -816 0
270 271 641 816 0
-271 -641 0
269 -271 -816 0
-270 -271 816 0
84 272 -641 0
272 -641 906 0
-272 641 0
-84 -272 -906 0
267 268 273 0
95 254 273 0
254 267 273 0
95 268 273 0
-254 -268 -273 0
-95 -267 -273 0
17 -179 274 275 -276 0
179 -274 0
-274 -275 0
-17 -274 0
-274 276 0
29 33 35 275 0
-29 -275 0
-35 -275 0
-33 -275 0
-8 22 206 276 -277 0
-276 277 0
-206 -276 0
8 -276 0
-22 -276 0
277 -281 -282 0
277 -280 283 0
277 -280 -282 0
277 -281 283 0
-277 282 -283 0
-277 280 281 0
1 2 0
-1 -2 0
917 0

